TCS_Benchmarks/redos_fix/snort3_output_distinct_2401_2400_109_0.txt
([^>]*)([^>]*)
([^>]*)([dD][oO][cC][uU][mM][eE][nN][tT][eE][lL][eE][mM][eE][nN][tT]\.[sS][tT][yY][lL][eE]\.[hH][eE][iI][gG][hH][tT])([^>]*)